JulietBench/Juliet_Based_Patch_Bench/linux/CWE-189-Numeric-Errors/CVE_2014_4656_ac902c112d90a89e59916f751c2745f4dbdbb4bd/Resultsnd_ctl_remove_numid_conflict_Snippet_patch1NEQ.smt2
; benchmark generated from python API
(set-info :status unknown)
(declare-fun R () (_ BitVec 32))
(declare-fun rsi () (_ BitVec 64))
(declare-fun rdi () (_ BitVec 64))
(assert
 (let (($x583 (= (_ bv0 32) R)))
 (let ((?x8 ((_ extract 31 0) rsi)))
 (let ((?x61 (bvnot ?x8)))
 (let ((?x6 ((_ extract 31 0) rdi)))
 (let (($x667 (bvult ?x6 ?x61)))
 (let ((?x14 (bvadd (bvadd ?x8 ?x6) (_ bv1 32))))
 (let (($x70 (bvuge (_ bv28 32) ?x14)))
 (let (($x445 (and $x70 $x667 $x583)))
 (let (($x19 (bvult (_ bv28 32) ?x14)))
 (let ((?x60 (bvadd ?x6 (_ bv1 32))))
 (let (($x67 (bvule (_ bv78 32) ?x60)))
 (let (($x436 (and $x67 $x19 $x667 $x583)))
 (let (($x438 (= (_ bv1 32) R)))
 (let (($x602 (bvugt (_ bv78 32) ?x60)))
 (let (($x422 (and $x602 $x19 $x667 $x438)))
 (let (($x932 (bvuge ?x6 ?x61)))
 (let ((?x1104 (bvadd ?x8 (_ bv1 32))))
 (let (($x1162 (bvuge (_ bv28 32) ?x1104)))
 (let (($x421 (and $x1162 $x932 $x583)))
 (let (($x1100 (bvult (_ bv28 32) ?x1104)))
 (let (($x641 (and $x1100 $x932 $x438)))
 (let (($x632 (or $x641 $x421 $x422 $x436 $x445)))
 (let (($x472 (not $x632)))
 (let (($x608 (and $x70 $x583)))
 (let (($x642 (and $x67 $x19 $x583)))
 (let (($x626 (and $x602 $x19 $x438)))
 (let (($x239 (or $x626 $x642 $x608)))
 (let (($x565 (not $x239)))
 (let (($x544 (and $x565 $x472)))
 (let (($x563 (and $x239 $x632)))
 (let (($x361 (or $x563 $x544)))
 (not $x361)))))))))))))))))))))))))))))))))
(check-sat)
